NAME          
ROWS
 N  OBJ
 L  c1
 L  c2
 L  c3
 L  c4
COLUMNS
    MARKER    'MARKER'                 'INTORG'
    x[1]      c1        143
    x[1]      c2        951
    x[1]      c3        769
    x[1]      c4        745
    x[1]      OBJ       -431
    x[2]      c1        394
    x[2]      c2        937
    x[2]      c3        329
    x[2]      c4        660
    x[2]      OBJ       -129
    x[3]      c1        581
    x[3]      c2        730
    x[3]      c3        899
    x[3]      c4        385
    x[3]      OBJ       -479
    x[4]      c1        315
    x[4]      c2        112
    x[4]      c3        64
    x[4]      c4        196
    x[4]      OBJ       -858
    x[5]      c1        900
    x[5]      c2        946
    x[5]      c3        399
    x[5]      c4        120
    x[5]      OBJ       -252
    x[6]      c1        331
    x[6]      c2        301
    x[6]      c3        770
    x[6]      c4        384
    x[6]      OBJ       -825
    x[7]      c1        371
    x[7]      c2        384
    x[7]      c3        879
    x[7]      c4        626
    x[7]      OBJ       -884
    x[8]      c1        894
    x[8]      c2        419
    x[8]      c3        598
    x[8]      c4        21
    x[8]      OBJ       -908
    x[9]      c1        407
    x[9]      c2        748
    x[9]      c3        275
    x[9]      c4        722
    x[9]      OBJ       -78
    x[10]     c1        880
    x[10]     c2        44
    x[10]     c3        594
    x[10]     c4        199
    x[10]     OBJ       -113
    x[11]     c1        440
    x[11]     c2        398
    x[11]     c3        595
    x[11]     c4        719
    x[11]     OBJ       -375
    x[12]     c1        215
    x[12]     c2        553
    x[12]     c3        990
    x[12]     c4        913
    x[12]     OBJ       -321
    x[13]     c1        840
    x[13]     c2        444
    x[13]     c3        239
    x[13]     c4        315
    x[13]     OBJ       -470
    x[14]     c1        499
    x[14]     c2        453
    x[14]     c3        218
    x[14]     c4        531
    x[14]     OBJ       -392
    x[15]     c1        366
    x[15]     c2        661
    x[15]     c3        361
    x[15]     c4        312
    x[15]     OBJ       -363
    x[16]     c1        430
    x[16]     c2        811
    x[16]     c3        970
    x[16]     c4        991
    x[16]     OBJ       -100
    x[17]     c1        868
    x[17]     c2        795
    x[17]     c3        964
    x[17]     c4        104
    x[17]     OBJ       -353
    x[18]     c1        538
    x[18]     c2        45
    x[18]     c3        777
    x[18]     c4        876
    x[18]     OBJ       -601
    x[19]     c1        400
    x[19]     c2        642
    x[19]     c3        575
    x[19]     c4        41
    x[19]     OBJ       -286
    x[20]     c1        570
    x[20]     c2        428
    x[20]     c3        29
    x[20]     c4        920
    x[20]     OBJ       -1000
RHS
    rhs       c1        5191
    rhs       c2        5401
    rhs       c3        5647
    rhs       c4        4890
RANGES
BOUNDS
 BV bounds    x[1]
 BV bounds    x[2]
 BV bounds    x[3]
 BV bounds    x[4]
 BV bounds    x[5]
 BV bounds    x[6]
 BV bounds    x[7]
 BV bounds    x[8]
 BV bounds    x[9]
 BV bounds    x[10]
 BV bounds    x[11]
 BV bounds    x[12]
 BV bounds    x[13]
 BV bounds    x[14]
 BV bounds    x[15]
 BV bounds    x[16]
 BV bounds    x[17]
 BV bounds    x[18]
 BV bounds    x[19]
 BV bounds    x[20]
ENDATA
